1625275
13,54,19,49,23,60,5,40,42,12,1,32,56,29,6,64,67,38,7,43,46,34,55,26,66,11,41,25,30,21,3,61,24,63,16,59,8,68,35,51,62,39,53,37,44,14,10,18,57,33,52,22,31,28,50,36,15,58,9,17,27,45,65,20,2,48,4,47